56
4
32 
8 
7 
37 
36 
9 
51 
14 
52 
26 
25 
42 
22 
41 
21 
50 
23 
27 
24 
18 
19 
39 
38 
10 
11 
20 
40 
54 
49 
45 
44 
28 
29 
0 
33 
31 
47 
53 
43 
30 
46 
55 
34 
3 
48 
1 
2 
17 
15 
16 
12 
13 
35 
5
6
4